************************************************************************
file with basedata            : cr333_.bas
initial value random generator: 27660
************************************************************************
projects                      :  1
jobs (incl. supersource/sink ):  18
horizon                       :  133
RESOURCES
  - renewable                 :  3   R
  - nonrenewable              :  2   N
  - doubly constrained        :  0   D
************************************************************************
PROJECT INFORMATION:
pronr.  #jobs rel.date duedate tardcost  MPM-Time
    1     16      0       22        0       22
************************************************************************
PRECEDENCE RELATIONS:
jobnr.    #modes  #successors   successors
   1        1          3           2   3   4
   2        3          2           5   6
   3        3          3           7   8  15
   4        3          3          10  11  14
   5        3          3           8   9  13
   6        3          3           7  11  13
   7        3          2          14  17
   8        3          1          17
   9        3          3          11  14  15
  10        3          1          12
  11        3          2          16  17
  12        3          2          13  16
  13        3          1          15
  14        3          1          16
  15        3          1          18
  16        3          1          18
  17        3          1          18
  18        1          0        
************************************************************************
REQUESTS/DURATIONS:
jobnr. mode duration  R 1  R 2  R 3  N 1  N 2
------------------------------------------------------------------------
  1      1     0       0    0    0    0    0
  2      1     4       6    9    9   10    4
         2     4      10    0    0   10    4
         3     7       2    0    0    7    2
  3      1     1       9    0    0    9    8
         2     3       9    0    0    8    8
         3     6       9    6    3    6    7
  4      1     6       6    3    3    8    4
         2    10       0    2    0    4    3
         3    10       5    0    0    6    4
  5      1     2       0    4    0    6    6
         2     7       7    4    0    5    5
         3     9       0    3    0    5    5
  6      1     9       0    3    0   10    8
         2     9       7    0    0    9   10
         3    10       0    0    4    8    5
  7      1     4       5    0    0    5    9
         2     6       0    5    0    5    8
         3    10       0    5    3    3    6
  8      1     4       7    0    0    9    7
         2     5       0    7    2    9    5
         3     9       6    0    0    9    3
  9      1     4       5    0    0    9    9
         2     8       5    0    3    9    6
         3    10       4    0    0    8    2
 10      1     1       6   10    4    2   10
         2     3       0    8    3    2    6
         3     4       0    8    0    2    5
 11      1     1       0    0    9    6    5
         2     5       0    0    9    3    4
         3     9       6    2    7    3    4
 12      1     2       0    0    8    4    4
         2     2       5    0    0    4    5
         3    10       5    0    8    3    3
 13      1     1       0    9    0    7    7
         2     9       0    0    5    7    7
         3    10       3    5    4    5    6
 14      1     1       3    0    5   10    8
         2     2       0    5    4   10    8
         3     6       2    0    3    9    8
 15      1     2       0    5    0    6    8
         2     3       7    5    9    5    7
         3     8       0    0    4    2    5
 16      1     4       7    0    9    6    7
         2     5       0    9    9    5    5
         3     6       0    8    0    5    2
 17      1     2       0    7    0    5    6
         2     7       7    0    0    4    3
         3     9       0    7    0    4    2
 18      1     0       0    0    0    0    0
************************************************************************
RESOURCEAVAILABILITIES:
  R 1  R 2  R 3  N 1  N 2
   13   11   10   90   79
************************************************************************
